language Essence 1.3

letting codeWordLength be 19
letting dist be
        function((1, 1) --> 0, (1, 2) --> 0, (1, 3) --> 0, (1, 4) --> 2, (1, 5) --> 2, (1, 6) --> 2, (1, 7) --> 1,
                 (1, 8) --> 2, (1, 9) --> 1, (1, 10) --> 2, (1, 11) --> 0, (1, 12) --> 0, (1, 13) --> 1, (2, 1) --> 0,
                 (2, 2) --> 0, (2, 3) --> 2, (2, 4) --> 2, (2, 5) --> 1, (2, 6) --> 1, (2, 7) --> 1, (2, 8) --> 0,
                 (2, 9) --> 1, (2, 10) --> 0, (2, 11) --> 0, (2, 12) --> 0, (2, 13) --> 0, (3, 1) --> 0, (3, 2) --> 2,
                 (3, 3) --> 0, (3, 4) --> 0, (3, 5) --> 0, (3, 6) --> 2, (3, 7) --> 0, (3, 8) --> 1, (3, 9) --> 2,
                 (3, 10) --> 0, (3, 11) --> 0, (3, 12) --> 1, (3, 13) --> 2, (4, 1) --> 2, (4, 2) --> 2, (4, 3) --> 0,
                 (4, 4) --> 0, (4, 5) --> 1, (4, 6) --> 2, (4, 7) --> 1, (4, 8) --> 2, (4, 9) --> 1, (4, 10) --> 0,
                 (4, 11) --> 2, (4, 12) --> 2, (4, 13) --> 0, (5, 1) --> 2, (5, 2) --> 1, (5, 3) --> 0, (5, 4) --> 1,
                 (5, 5) --> 0, (5, 6) --> 2, (5, 7) --> 1, (5, 8) --> 0, (5, 9) --> 2, (5, 10) --> 1, (5, 11) --> 1,
                 (5, 12) --> 2, (5, 13) --> 1, (6, 1) --> 2, (6, 2) --> 1, (6, 3) --> 2, (6, 4) --> 2, (6, 5) --> 2,
                 (6, 6) --> 0, (6, 7) --> 1, (6, 8) --> 2, (6, 9) --> 2, (6, 10) --> 1, (6, 11) --> 0, (6, 12) --> 1,
                 (6, 13) --> 1, (7, 1) --> 1, (7, 2) --> 1, (7, 3) --> 0, (7, 4) --> 1, (7, 5) --> 1, (7, 6) --> 1,
                 (7, 7) --> 0, (7, 8) --> 1, (7, 9) --> 0, (7, 10) --> 1, (7, 11) --> 2, (7, 12) --> 0, (7, 13) --> 0,
                 (8, 1) --> 2, (8, 2) --> 0, (8, 3) --> 1, (8, 4) --> 2, (8, 5) --> 0, (8, 6) --> 2, (8, 7) --> 1,
                 (8, 8) --> 0, (8, 9) --> 2, (8, 10) --> 1, (8, 11) --> 0, (8, 12) --> 1, (8, 13) --> 0, (9, 1) --> 1,
                 (9, 2) --> 1, (9, 3) --> 2, (9, 4) --> 1, (9, 5) --> 2, (9, 6) --> 2, (9, 7) --> 0, (9, 8) --> 2,
                 (9, 9) --> 0, (9, 10) --> 2, (9, 11) --> 2, (9, 12) --> 0, (9, 13) --> 1, (10, 1) --> 2, (10, 2) --> 0,
                 (10, 3) --> 0, (10, 4) --> 0, (10, 5) --> 1, (10, 6) --> 1, (10, 7) --> 1, (10, 8) --> 1,
                 (10, 9) --> 2, (10, 10) --> 0, (10, 11) --> 0, (10, 12) --> 2, (10, 13) --> 2, (11, 1) --> 0,
                 (11, 2) --> 0, (11, 3) --> 0, (11, 4) --> 2, (11, 5) --> 1, (11, 6) --> 0, (11, 7) --> 2,
                 (11, 8) --> 0, (11, 9) --> 2, (11, 10) --> 0, (11, 11) --> 0, (11, 12) --> 2, (11, 13) --> 0,
                 (12, 1) --> 0, (12, 2) --> 0, (12, 3) --> 1, (12, 4) --> 2, (12, 5) --> 2, (12, 6) --> 1,
                 (12, 7) --> 0, (12, 8) --> 1, (12, 9) --> 0, (12, 10) --> 2, (12, 11) --> 2, (12, 12) --> 0,
                 (12, 13) --> 2, (13, 1) --> 1, (13, 2) --> 0, (13, 3) --> 2, (13, 4) --> 0, (13, 5) --> 1,
                 (13, 6) --> 1, (13, 7) --> 0, (13, 8) --> 0, (13, 9) --> 1, (13, 10) --> 2, (13, 11) --> 0,
                 (13, 12) --> 2, (13, 13) --> 0)
letting maxDist be 18
letting minDist be 10
letting nbCharacter be 13
letting numOfCodeWords be 34
